clingo version 5.6.2
Reading from ...gen_asp_scripts/ijp_expt_cases-1093.dl
Solving...
UNSATISFIABLE

Models       : 0
Calls        : 1
Time         : 0.453s (Solving: 0.17s 1st Model: 0.00s Unsat: 0.17s)
CPU Time     : 0.452s
